0
Node Left Objective IInf Best_Integer Best_Bound ItCnt Gap
0+ 0 nan nan 136.4723 0.0000 nan 100.00%
0+ 0 nan nan 99.1655 0.0000 nan 100.00%
0 0 1.0620 26 99.1655 1.0620 177 98.93%
0+ 0 nan nan 79.8625 1.0620 nan 98.67%
0+ 0 nan nan 75.8240 1.0620 nan 98.60%
0 2 1.0620 26 75.8240 1.0620 177 98.60%
CPXPARAM_MIP_Cuts_Implied 0
1
Node Left Objective IInf Best_Integer Best_Bound ItCnt Gap
0+ 0 nan nan 136.4723 0.0000 nan 100.00%
0+ 0 nan nan 99.1655 0.0000 nan 100.00%
0 0 0.0000 27 99.1655 0.0000 131 100.00%
0+ 0 nan nan 86.2827 0.0000 nan 100.00%
0+ 0 nan nan 77.7223 0.0000 nan 100.00%
0+ 0 nan nan 57.1939 0.0000 nan 100.00%
0+ 0 nan nan 49.3057 0.0000 nan 100.00%
0 2 0.0000 19 49.3057 0.0000 131 100.00%
CPXPARAM_MIP_Cuts_Implied 0
2
Node Left Objective IInf Best_Integer Best_Bound ItCnt Gap
0+ 0 nan nan 136.4723 0.0000 nan 100.00%
0+ 0 nan nan 69.8576 0.0000 nan 100.00%
0 0 0.0000 23 69.8576 0.0000 131 100.00%
0+ 0 nan nan 50.3967 0.0000 nan 100.00%
0 2 0.0000 21 50.3967 0.0000 131 100.00%
CPXPARAM_MIP_Cuts_Implied 0
3
Node Left Objective IInf Best_Integer Best_Bound ItCnt Gap
0+ 0 nan nan 136.4723 0.0000 nan 100.00%
0+ 0 nan nan 69.8576 0.0000 nan 100.00%
0 0 0.0000 23 69.8576 0.0000 128 100.00%
0+ 0 nan nan 52.6772 0.0000 nan 100.00%
0+ 0 nan nan 20.2193 0.0000 nan 100.00%
0+ 0 nan nan 20.1192 0.0000 nan 100.00%
0 2 0.0000 16 20.1192 0.0000 128 100.00%
CPXPARAM_MIP_Cuts_Implied 0
4
Node Left Objective IInf Best_Integer Best_Bound ItCnt Gap
0+ 0 nan nan 115.1924 0.0000 nan 100.00%
0+ 0 nan nan 108.1598 0.0000 nan 100.00%
0+ 0 nan nan 98.2525 0.0000 nan 100.00%
0 0 10.9280 24 98.2525 10.9280 158 88.88%
0+ 0 nan nan 68.5231 10.9280 nan 84.05%
0+ 0 nan nan 63.2601 10.9280 nan 82.73%
0 2 10.9280 24 63.2601 10.9280 158 82.73%
CPXPARAM_MIP_Cuts_Implied 0
5
Node Left Objective IInf Best_Integer Best_Bound ItCnt Gap
0+ 0 nan nan 115.1924 0.0000 nan 100.00%
0+ 0 nan nan 108.1598 0.0000 nan 100.00%
0+ 0 nan nan 79.8300 0.0000 nan 100.00%
0 0 0.0000 27 79.8300 0.0000 129 100.00%
0+ 0 nan nan 77.7750 0.0000 nan 100.00%
0+ 0 nan nan 68.9412 0.0000 nan 100.00%
0+ 0 nan nan 42.0049 0.0000 nan 100.00%
0 2 0.0000 20 42.0049 0.0000 129 100.00%
CPXPARAM_MIP_Cuts_Implied 0
6
Node Left Objective IInf Best_Integer Best_Bound ItCnt Gap
0+ 0 nan nan 115.1924 0.0000 nan 100.00%
0+ 0 nan nan 81.9438 0.0000 nan 100.00%
0 0 10.7107 19 81.9438 10.7107 153 86.93%
0+ 0 nan nan 80.6567 10.7107 nan 86.72%
0+ 0 nan nan 60.1150 10.7107 nan 82.18%
0+ 0 nan nan 50.6268 10.7107 nan 78.84%
0 2 10.7107 19 50.6268 10.7107 153 78.84%
CPXPARAM_MIP_Cuts_Implied 0
7
Node Left Objective IInf Best_Integer Best_Bound ItCnt Gap
0+ 0 nan nan 115.1924 0.0000 nan 100.00%
0+ 0 nan nan 81.9438 0.0000 nan 100.00%
0 0 0.0000 23 81.9438 0.0000 123 100.00%
0+ 0 nan nan 62.3577 0.0000 nan 100.00%
0+ 0 nan nan 41.4305 0.0000 nan 100.00%
0+ 0 nan nan 30.7090 0.0000 nan 100.00%
0 2 0.0000 16 30.7090 0.0000 123 100.00%
CPXPARAM_MIP_Cuts_Implied 0
8
Node Left Objective IInf Best_Integer Best_Bound ItCnt Gap
0+ 0 nan nan 131.6037 0.0000 nan 100.00%
0+ 0 nan nan 111.2422 0.0000 nan 100.00%
0+ 0 nan nan 109.8445 0.0000 nan 100.00%
0 0 16.8750 23 109.8445 16.8750 153 84.64%
0+ 0 nan nan 78.2063 16.8750 nan 78.42%
0 2 16.8750 22 78.2063 16.8750 153 78.42%
CPXPARAM_MIP_Cuts_Implied 0
9
Node Left Objective IInf Best_Integer Best_Bound ItCnt Gap
0+ 0 nan nan 131.6037 0.0000 nan 100.00%
0+ 0 nan nan 111.2422 0.0000 nan 100.00%
0 0 0.0000 27 111.2422 0.0000 128 100.00%
0+ 0 nan nan 94.5662 0.0000 nan 100.00%
0+ 0 nan nan 93.5553 0.0000 nan 100.00%
0+ 0 nan nan 72.8280 0.0000 nan 100.00%
0+ 0 nan nan 72.3954 0.0000 nan 100.00%
0 2 0.0000 21 72.3954 0.0000 128 100.00%
CPXPARAM_MIP_Cuts_Implied 0
10
Node Left Objective IInf Best_Integer Best_Bound ItCnt Gap
0+ 0 nan nan 131.6037 0.0000 nan 100.00%
0+ 0 nan nan 99.6733 0.0000 nan 100.00%
0 0 0.0000 23 99.6733 0.0000 139 100.00%
0+ 0 nan nan 81.7040 0.0000 nan 100.00%
0+ 0 nan nan 75.6234 0.0000 nan 100.00%
0 2 0.0000 23 75.6234 0.0000 139 100.00%
CPXPARAM_MIP_Cuts_Implied 0
11
Node Left Objective IInf Best_Integer Best_Bound ItCnt Gap
0+ 0 nan nan 131.6037 0.0000 nan 100.00%
0+ 0 nan nan 99.6733 0.0000 nan 100.00%
0 0 0.0000 23 99.6733 0.0000 134 100.00%
0+ 0 nan nan 80.1830 0.0000 nan 100.00%
0+ 0 nan nan 54.5147 0.0000 nan 100.00%
0+ 0 nan nan 36.1855 0.0000 nan 100.00%
0+ 0 nan nan 34.9412 0.0000 nan 100.00%
0 2 0.0000 15 34.9412 0.0000 134 100.00%
CPXPARAM_MIP_Cuts_Implied 0
12
Node Left Objective IInf Best_Integer Best_Bound ItCnt Gap
0+ 0 nan nan 110.3567 0.0000 nan 100.00%
0+ 0 nan nan 96.6816 0.0000 nan 100.00%
0 0 0.0000 27 96.6816 0.0000 148 100.00%
0+ 0 nan nan 92.1048 0.0000 nan 100.00%
0+ 0 nan nan 74.5990 0.0000 nan 100.00%
0 2 0.0000 27 74.5990 0.0000 148 100.00%
CPXPARAM_MIP_Cuts_Implied 0
13
Node Left Objective IInf Best_Integer Best_Bound ItCnt Gap
0+ 0 nan nan 110.3567 0.0000 nan 100.00%
0+ 0 nan nan 96.6816 0.0000 nan 100.00%
0 0 0.0000 27 96.6816 0.0000 129 100.00%
0+ 0 nan nan 73.2319 0.0000 nan 100.00%
0+ 0 nan nan 55.4567 0.0000 nan 100.00%
0+ 0 nan nan 51.6941 0.0000 nan 100.00%
0+ 0 nan nan 40.0886 0.0000 nan 100.00%
0 2 0.0000 21 40.0886 0.0000 129 100.00%
CPXPARAM_MIP_Cuts_Implied 0
14
Node Left Objective IInf Best_Integer Best_Bound ItCnt Gap
0+ 0 nan nan 110.3567 0.0000 nan 100.00%
0+ 0 nan nan 82.1268 0.0000 nan 100.00%
0 0 0.0000 23 82.1268 0.0000 134 100.00%
0+ 0 nan nan 61.2715 0.0000 nan 100.00%
0+ 0 nan nan 52.7535 0.0000 nan 100.00%
0 2 0.0000 23 52.7535 0.0000 134 100.00%
CPXPARAM_MIP_Cuts_Implied 0
15
Node Left Objective IInf Best_Integer Best_Bound ItCnt Gap
0+ 0 nan nan 110.3567 0.0000 nan 100.00%
0+ 0 nan nan 82.1268 0.0000 nan 100.00%
0 0 0.0000 23 82.1268 0.0000 126 100.00%
0+ 0 nan nan 37.4097 0.0000 nan 100.00%
0+ 0 nan nan 32.9989 0.0000 nan 100.00%
0 2 0.0000 15 32.9989 0.0000 126 100.00%
CPXPARAM_MIP_Cuts_Implied 0
16
Node Left Objective IInf Best_Integer Best_Bound ItCnt Gap
0+ 0 nan nan 109.2984 0.0000 nan 100.00%
0+ 0 nan nan 97.6971 0.0000 nan 100.00%
0 0 0.0000 27 97.6971 0.0000 150 100.00%
0+ 0 nan nan 94.5135 0.0000 nan 100.00%
0+ 0 nan nan 84.8512 0.0000 nan 100.00%
0 2 0.0000 27 84.8512 0.0000 150 100.00%
CPXPARAM_MIP_Cuts_Implied 0
17
Node Left Objective IInf Best_Integer Best_Bound ItCnt Gap
0+ 0 nan nan 109.2984 0.0000 nan 100.00%
0+ 0 nan nan 97.6971 0.0000 nan 100.00%
0 0 0.0000 27 97.6971 0.0000 125 100.00%
0+ 0 nan nan 71.0845 0.0000 nan 100.00%
0+ 0 nan nan 59.5187 0.0000 nan 100.00%
0+ 0 nan nan 51.7724 0.0000 nan 100.00%
0+ 0 nan nan 39.2475 0.0000 nan 100.00%
0 2 0.0000 20 39.2475 0.0000 125 100.00%
CPXPARAM_MIP_Cuts_Implied 0
18
Node Left Objective IInf Best_Integer Best_Bound ItCnt Gap
0+ 0 nan nan 109.2984 0.0000 nan 100.00%
0+ 0 nan nan 86.6088 0.0000 nan 100.00%
0 0 11.3010 19 86.6088 11.3010 155 86.95%
0+ 0 nan nan 64.1257 11.3010 nan 82.38%
0+ 0 nan nan 59.9572 11.3010 nan 81.15%
0 2 11.3010 19 59.9572 11.3010 155 81.15%
CPXPARAM_MIP_Cuts_Implied 0
19
Node Left Objective IInf Best_Integer Best_Bound ItCnt Gap
0+ 0 nan nan 109.2984 0.0000 nan 100.00%
0+ 0 nan nan 86.6088 0.0000 nan 100.00%
0 0 0.0000 23 86.6088 0.0000 119 100.00%
0+ 0 nan nan 49.5540 0.0000 nan 100.00%
0+ 0 nan nan 42.9229 0.0000 nan 100.00%
0+ 0 nan nan 35.0428 0.0000 nan 100.00%
0+ 0 nan nan 25.8942 0.0000 nan 100.00%
0 2 0.0000 15 25.8942 0.0000 119 100.00%
CPXPARAM_MIP_Cuts_Implied 0
20
Node Left Objective IInf Best_Integer Best_Bound ItCnt Gap
0+ 0 nan nan 93.3792 0.0000 nan 100.00%
0+ 0 nan nan 84.6822 0.0000 nan 100.00%
0 0 0.0000 27 84.6822 0.0000 133 100.00%
0+ 0 nan nan 52.3615 0.0000 nan 100.00%
0+ 0 nan nan 41.1646 0.0000 nan 100.00%
0+ 0 nan nan 40.5743 0.0000 nan 100.00%
0 2 0.0000 27 40.5743 0.0000 133 100.00%
CPXPARAM_MIP_Cuts_Implied 0
21
Node Left Objective IInf Best_Integer Best_Bound ItCnt Gap
0+ 0 nan nan 93.3792 0.0000 nan 100.00%
0+ 0 nan nan 84.6822 0.0000 nan 100.00%
0 0 0.0000 27 84.6822 0.0000 121 100.00%
0+ 0 nan nan 33.7589 0.0000 nan 100.00%
0+ 0 nan nan 27.3513 0.0000 nan 100.00%
0 2 0.0000 19 27.3513 0.0000 121 100.00%
CPXPARAM_MIP_Cuts_Implied 0
22
Node Left Objective IInf Best_Integer Best_Bound ItCnt Gap
0+ 0 nan nan 93.3792 0.0000 nan 100.00%
0+ 0 nan nan 77.4137 0.0000 nan 100.00%
0 0 0.0000 23 77.4137 0.0000 135 100.00%
0+ 0 nan nan 51.5425 0.0000 nan 100.00%
0+ 0 nan nan 48.5203 0.0000 nan 100.00%
0+ 0 nan nan 32.3812 0.0000 nan 100.00%
0 2 0.0000 22 32.3812 0.0000 135 100.00%
CPXPARAM_MIP_Cuts_Implied 0
23
Node Left Objective IInf Best_Integer Best_Bound ItCnt Gap
0+ 0 nan nan 93.3792 0.0000 nan 100.00%
0+ 0 nan nan 77.4137 0.0000 nan 100.00%
0 0 0.0000 22 77.4137 0.0000 123 100.00%
0+ 0 nan nan 44.2766 0.0000 nan 100.00%
0+ 0 nan nan 39.2549 0.0000 nan 100.00%
0+ 0 nan nan 29.4715 0.0000 nan 100.00%
0+ 0 nan nan 24.9683 0.0000 nan 100.00%
0 2 0.0000 16 24.9683 0.0000 123 100.00%
CPXPARAM_MIP_Cuts_Implied 0
24
Node Left Objective IInf Best_Integer Best_Bound ItCnt Gap
0+ 0 nan nan 94.5045 0.0000 nan 100.00%
0+ 0 nan nan 83.7373 0.0000 nan 100.00%
0 0 0.0000 27 83.7373 0.0000 149 100.00%
0+ 0 nan nan 83.3613 0.0000 nan 100.00%
0+ 0 nan nan 72.2118 0.0000 nan 100.00%
0+ 0 nan nan 47.6335 0.0000 nan 100.00%
0 2 0.0000 27 47.6335 0.0000 149 100.00%
CPXPARAM_MIP_Cuts_Implied 0
25
Node Left Objective IInf Best_Integer Best_Bound ItCnt Gap
0+ 0 nan nan 94.5045 0.0000 nan 100.00%
0+ 0 nan nan 83.7373 0.0000 nan 100.00%
0 0 0.0000 27 83.7373 0.0000 131 100.00%
0+ 0 nan nan 37.6521 0.0000 nan 100.00%
0+ 0 nan nan 33.2517 0.0000 nan 100.00%
0+ 0 nan nan 20.0970 0.0000 nan 100.00%
0 2 0.0000 19 20.0970 0.0000 131 100.00%
CPXPARAM_MIP_Cuts_Implied 0
26
Node Left Objective IInf Best_Integer Best_Bound ItCnt Gap
0+ 0 nan nan 94.5045 0.0000 nan 100.00%
0+ 0 nan nan 77.4984 0.0000 nan 100.00%
0 0 0.0000 23 77.4984 0.0000 128 100.00%
0+ 0 nan nan 57.4577 0.0000 nan 100.00%
0+ 0 nan nan 38.3189 0.0000 nan 100.00%
0+ 0 nan nan 36.9394 0.0000 nan 100.00%
0 2 0.0000 22 36.9394 0.0000 128 100.00%
CPXPARAM_MIP_Cuts_Implied 0
27
Node Left Objective IInf Best_Integer Best_Bound ItCnt Gap
0+ 0 nan nan 94.5045 0.0000 nan 100.00%
0+ 0 nan nan 77.4984 0.0000 nan 100.00%
0 0 0.0000 23 77.4984 0.0000 115 100.00%
0+ 0 nan nan 29.2294 0.0000 nan 100.00%
0+ 0 nan nan 18.5243 0.0000 nan 100.00%
0+ 0 nan nan 18.3372 0.0000 nan 100.00%
0+ 0 nan nan 10.2788 0.0000 nan 100.00%
0 2 0.0000 14 10.2788 0.0000 115 100.00%
CPXPARAM_MIP_Cuts_Implied 0
28
Node Left Objective IInf Best_Integer Best_Bound ItCnt Gap
0+ 0 nan nan 133.7092 0.0000 nan 100.00%
0+ 0 nan nan 129.6212 0.0000 nan 100.00%
0+ 0 nan nan 108.6480 0.0000 nan 100.00%
0 0 11.6826 21 108.6480 11.6826 155 89.25%
0+ 0 nan nan 93.7696 11.6826 nan 87.54%
0+ 0 nan nan 79.1970 11.6826 nan 85.25%
0+ 0 nan nan 78.0903 11.6826 nan 85.04%
0 2 11.6826 21 78.0903 11.6826 155 85.04%
CPXPARAM_MIP_Cuts_Implied 0
29
Node Left Objective IInf Best_Integer Best_Bound ItCnt Gap
0+ 0 nan nan 133.7092 0.0000 nan 100.00%
0+ 0 nan nan 129.6212 0.0000 nan 100.00%
0 0 0.0000 27 129.6212 0.0000 131 100.00%
0+ 0 nan nan 72.3650 0.0000 nan 100.00%
0+ 0 nan nan 64.1539 0.0000 nan 100.00%
0+ 0 nan nan 53.0370 0.0000 nan 100.00%
0+ 0 nan nan 41.9504 0.0000 nan 100.00%
0 2 0.0000 23 41.9504 0.0000 131 100.00%
CPXPARAM_MIP_Cuts_Implied 0
30
Node Left Objective IInf Best_Integer Best_Bound ItCnt Gap
0+ 0 nan nan 133.7092 0.0000 nan 100.00%
0+ 0 nan nan 114.7297 0.0000 nan 100.00%
0 0 24.4161 16 114.7297 24.4161 157 78.72%
0+ 0 nan nan 105.4216 24.4161 nan 76.84%
0+ 0 nan nan 82.8065 24.4161 nan 70.51%
0+ 0 nan nan 71.2120 24.4161 nan 65.71%
0 2 24.4161 16 71.2120 24.4161 157 65.71%
CPXPARAM_MIP_Cuts_Implied 0
31
Node Left Objective IInf Best_Integer Best_Bound ItCnt Gap
0+ 0 nan nan 133.7092 0.0000 nan 100.00%
0+ 0 nan nan 114.7297 0.0000 nan 100.00%
0 0 0.0000 23 114.7297 0.0000 118 100.00%
0+ 0 nan nan 56.4594 0.0000 nan 100.00%
0+ 0 nan nan 55.7068 0.0000 nan 100.00%
0+ 0 nan nan 38.3245 0.0000 nan 100.00%
0+ 0 nan nan 35.9797 0.0000 nan 100.00%
0 2 0.0000 15 35.9797 0.0000 118 100.00%
CPXPARAM_MIP_Cuts_Implied 0
32
Node Left Objective IInf Best_Integer Best_Bound ItCnt Gap
0+ 0 nan nan 110.7059 0.0000 nan 100.00%
0+ 0 nan nan 93.8685 0.0000 nan 100.00%
0+ 0 nan nan 88.1652 0.0000 nan 100.00%
0 0 12.8255 21 88.1652 12.8255 166 85.45%
0+ 0 nan nan 72.6244 12.8255 nan 82.34%
0+ 0 nan nan 63.4098 12.8255 nan 79.77%
0 2 12.8255 20 63.4098 12.8255 166 79.77%
CPXPARAM_MIP_Cuts_Implied 0
33
Node Left Objective IInf Best_Integer Best_Bound ItCnt Gap
0+ 0 nan nan 110.7059 0.0000 nan 100.00%
0+ 0 nan nan 93.8685 0.0000 nan 100.00%
0 0 0.0000 27 93.8685 0.0000 120 100.00%
0+ 0 nan nan 49.9720 0.0000 nan 100.00%
0+ 0 nan nan 47.6323 0.0000 nan 100.00%
0+ 0 nan nan 38.4162 0.0000 nan 100.00%
0 2 0.0000 19 38.4162 0.0000 120 100.00%
CPXPARAM_MIP_Cuts_Implied 0
34
Node Left Objective IInf Best_Integer Best_Bound ItCnt Gap
0+ 0 nan nan 110.7059 0.0000 nan 100.00%
0+ 0 nan nan 74.9711 0.0000 nan 100.00%
0 0 0.0000 23 74.9711 0.0000 152 100.00%
0+ 0 nan nan 70.1819 0.0000 nan 100.00%
0+ 0 nan nan 51.7540 0.0000 nan 100.00%
0+ 0 nan nan 46.0509 0.0000 nan 100.00%
0 2 0.0000 23 46.0509 0.0000 152 100.00%
CPXPARAM_MIP_Cuts_Implied 0
35
Node Left Objective IInf Best_Integer Best_Bound ItCnt Gap
0+ 0 nan nan 110.7059 0.0000 nan 100.00%
0+ 0 nan nan 74.9711 0.0000 nan 100.00%
0 0 0.0000 23 74.9711 0.0000 115 100.00%
0+ 0 nan nan 29.6008 0.0000 nan 100.00%
0+ 0 nan nan 27.6995 0.0000 nan 100.00%
0 2 0.0000 15 27.6995 0.0000 115 100.00%
CPXPARAM_MIP_Cuts_Implied 0
36
Node Left Objective IInf Best_Integer Best_Bound ItCnt Gap
0+ 0 nan nan 123.7135 0.0000 nan 100.00%
0+ 0 nan nan 108.6148 0.0000 nan 100.00%
0+ 0 nan nan 99.0366 0.0000 nan 100.00%
0 0 0.0000 27 99.0366 0.0000 139 100.00%
0+ 0 nan nan 98.7082 0.0000 nan 100.00%
0+ 0 nan nan 72.0388 0.0000 nan 100.00%
0+ 0 nan nan 58.4161 0.0000 nan 100.00%
0 2 0.0000 27 58.4161 0.0000 139 100.00%
CPXPARAM_MIP_Cuts_Implied 0
37
Node Left Objective IInf Best_Integer Best_Bound ItCnt Gap
0+ 0 nan nan 123.7135 0.0000 nan 100.00%
0+ 0 nan nan 108.6148 0.0000 nan 100.00%
0 0 0.0000 27 108.6148 0.0000 124 100.00%
0+ 0 nan nan 71.2777 0.0000 nan 100.00%
0+ 0 nan nan 58.7503 0.0000 nan 100.00%
0+ 0 nan nan 39.8361 0.0000 nan 100.00%
0+ 0 nan nan 33.7803 0.0000 nan 100.00%
0 2 0.0000 19 33.7803 0.0000 124 100.00%
CPXPARAM_MIP_Cuts_Implied 0
38
Node Left Objective IInf Best_Integer Best_Bound ItCnt Gap
0+ 0 nan nan 123.7135 0.0000 nan 100.00%
0+ 0 nan nan 89.1896 0.0000 nan 100.00%
0 0 4.5425 20 89.1896 4.5425 153 94.91%
0+ 0 nan nan 83.5087 4.5425 nan 94.56%
0+ 0 nan nan 50.1610 4.5425 nan 90.94%
0 2 4.5425 20 50.1610 4.5425 153 90.94%
CPXPARAM_MIP_Cuts_Implied 0
39
Node Left Objective IInf Best_Integer Best_Bound ItCnt Gap
0+ 0 nan nan 123.7135 0.0000 nan 100.00%
0+ 0 nan nan 89.1896 0.0000 nan 100.00%
0 0 0.0000 23 89.1896 0.0000 129 100.00%
0+ 0 nan nan 59.4311 0.0000 nan 100.00%
0+ 0 nan nan 35.2998 0.0000 nan 100.00%
0+ 0 nan nan 25.4616 0.0000 nan 100.00%
0 2 0.0000 15 25.4616 0.0000 129 100.00%
CPXPARAM_MIP_Cuts_Implied 0
